npieces = 15;	
nplayers = 50;	
duration = [5, 6, 3, 4, 5, 2, 3, 8, 6, 4, 6, 7, 10, 1, 10];
rehearsal = [[1, 1, 1, 0, 1, 1, 1, 0, 1, 1, 1, 0, 1, 1, 1], [0, 1, 1, 0, 1, 1, 0, 0, 1, 0, 1, 1, 0, 0, 0], [1, 1, 0, 1, 1, 0, 1, 1, 1, 1, 1, 0, 0, 0, 1], [0, 1, 1, 0, 0, 1, 0, 1, 1, 1, 1, 1, 1, 1, 0], [1, 0, 0, 0, 1, 0, 0, 0, 0, 1, 0, 0, 1, 0, 1], [0, 1, 0, 1, 0, 1, 1, 0, 1, 1, 1, 1, 1, 1, 1], [0, 1, 1, 0, 0, 0, 1, 1, 1, 1, 1, 1, 1, 1, 1], [1, 1, 1, 0, 1, 1, 1, 0, 1, 1, 1, 0, 1, 0, 0], [1, 0, 0, 1, 0, 1, 1, 0, 1, 1, 1, 1, 0, 0, 1], [1, 1, 1, 0, 1, 1, 1, 1, 1, 1, 1, 1, 1, 1, 1], [0, 1, 1, 1, 1, 1, 0, 1, 1, 1, 1, 0, 0, 1, 0], [0, 0, 1, 1, 1, 0, 0, 1, 1, 1, 1, 0, 1, 1, 1], [1, 1, 1, 1, 1, 0, 1, 1, 1, 0, 1, 0, 1, 1, 1], [1, 1, 0, 1, 0, 1, 1, 0, 1, 1, 1, 1, 1, 1, 0], [1, 1, 1, 1, 1, 1, 1, 1, 0, 1, 1, 1, 0, 0, 1], [1, 1, 1, 1, 0, 1, 0, 1, 1, 0, 0, 0, 1, 1, 1], [1, 1, 1, 1, 0, 0, 0, 1, 1, 1, 1, 1, 1, 1, 1], [1, 0, 0, 1, 1, 0, 1, 0, 1, 1, 1, 1, 0, 1, 1], [1, 1, 0, 1, 1, 1, 0, 1, 1, 1, 1, 0, 0, 1, 1], [1, 1, 0, 0, 1, 1, 1, 1, 1, 1, 0, 1, 0, 0, 0], [1, 1, 1, 1, 1, 0, 0, 1, 1, 1, 0, 1, 1, 1, 1], [1, 1, 1, 1, 0, 1, 0, 0, 1, 0, 1, 0, 1, 1, 1], [0, 0, 1, 1, 1, 1, 1, 0, 0, 1, 1, 1, 0, 0, 0], [0, 1, 1, 1, 1, 1, 1, 0, 0, 0, 0, 1, 1, 1, 0], [1, 1, 0, 1, 0, 1, 1, 0, 1, 0, 0, 1, 0, 0, 0], [1, 1, 0, 0, 1, 1, 0, 0, 1, 1, 1, 1, 0, 0, 1], [1, 1, 1, 1, 1, 1, 1, 0, 1, 1, 1, 1, 1, 0, 0], [1, 1, 1, 0, 1, 1, 0, 0, 1, 1, 1, 0, 1, 1, 1], [1, 0, 1, 1, 1, 1, 0, 1, 0, 0, 1, 0, 0, 1, 0], [1, 0, 0, 1, 1, 0, 1, 1, 0, 1, 1, 1, 1, 1, 1], [0, 1, 1, 0, 1, 0, 1, 1, 1, 1, 1, 1, 1, 0, 1], [1, 1, 1, 0, 1, 1, 1, 1, 1, 1, 0, 0, 0, 1, 1], [1, 0, 1, 0, 0, 1, 1, 1, 1, 1, 0, 1, 1, 1, 0], [1, 1, 0, 1, 1, 1, 1, 1, 1, 0, 1, 0, 1, 1, 0], [0, 0, 1, 1, 1, 0, 0, 0, 1, 1, 1, 1, 0, 1, 1], [0, 0, 0, 1, 1, 1, 0, 0, 1, 1, 1, 0, 0, 0, 0], [1, 1, 1, 0, 1, 0, 0, 0, 1, 1, 1, 0, 0, 1, 1], [1, 0, 0, 0, 0, 1, 1, 1, 0, 0, 1, 0, 1, 0, 1], [1, 1, 0, 1, 0, 1, 1, 0, 1, 1, 1, 1, 1, 0, 0], [1, 1, 1, 1, 0, 1, 1, 1, 1, 0, 1, 1, 1, 1, 1], [1, 1, 1, 1, 0, 1, 0, 1, 0, 1, 1, 0, 0, 0, 1], [0, 0, 1, 1, 1, 1, 1, 1, 1, 1, 0, 1, 1, 1, 0], [1, 1, 0, 0, 0, 1, 1, 0, 1, 0, 1, 1, 0, 1, 1], [1, 1, 1, 0, 1, 0, 1, 0, 1, 1, 1, 0, 1, 0, 0], [1, 1, 0, 1, 1, 1, 0, 1, 0, 1, 1, 1, 1, 1, 1], [1, 1, 1, 1, 1, 0, 0, 0, 1, 1, 0, 1, 0, 0, 1], [0, 1, 1, 1, 1, 1, 1, 1, 0, 0, 1, 1, 1, 1, 1], [1, 0, 0, 1, 0, 1, 0, 1, 1, 1, 1, 1, 1, 0, 1], [0, 1, 1, 1, 1, 1, 1, 1, 1, 0, 0, 0, 0, 1, 1], [0, 1, 0, 1, 1, 1, 0, 1, 0, 0, 1, 1, 1, 1, 1]];